c Random generated cnf formula, satisfiable: false
p cnf 10 50
3 5 -8 0
3 2 -1 0
-4 -6 -3 0
5 2 -4 0
9 2 4 0
6 -7 10 0
-1 2 -7 0
2 -1 8 0
6 -3 -1 0
1 -3 -8 0
-10 7 5 0
-5 8 -2 0
10 3 -1 0
9 4 6 0
10 -9 8 0
6 -1 10 0
1 8 -4 0
-6 -1 -10 0
-3 5 10 0
-6 8 10 0
5 -4 7 0
-3 4 7 0
-9 -8 -4 0
4 2 10 0
-8 3 7 0
-8 5 -9 0
-3 -5 -6 0
4 -5 8 0
-10 6 -9 0
-4 9 -5 0
-2 -10 6 0
-10 -5 7 0
2 -10 -1 0
7 2 3 0
-6 -9 -10 0
10 -8 -6 0
-1 -5 10 0
-10 8 -6 0
7 -1 -2 0
-3 9 -6 0
10 5 2 0
7 -2 -1 0
-8 4 6 0
-5 -9 1 0
-9 -3 -6 0
-7 2 -8 0
-7 -2 -8 0
7 -3 2 0
7 -2 -8 0
2 -6 1 0
